[1, 3, 8, 15, 9, 14, 17, 7, 11, 10, 14, 15, 13, 11, 12, 10, 17, 17, 19, 21, 17, 19, 23, 25, 27, 26, 27, 28, 27, 28, 31, 35, 36, 34, 36, 40, 38, 37, 39, 35, 37, 40, 53, 58, 67, 55, 47, 48, 51, 53, 50, 51, 52, 51, 48, 55, 54, 58, 60, 59, 60, 58, 59, 66, 65, 67, 71, 72, 70, 71, 72, 69, 79, 75, 74, 77, 80, 80, 81, 78, 79, 74, 73, 78, 75, 86, 87, 88, 63, 105, 91, 102, 101, 98, 96, 95, 94, 97, 98, 101, 95, 94, 79, 109, 111, 109, 108, 111, 110, 110, 112, 113, 111, 117, 109, 116, 114, 119, 113, 117, 116, 122, 123, 123, 126, 124, 130, 129, 128, 130, 131, 132, 134, 133, 133, 138, 136, 138, 142, 140, 139, 141, 146, 149, 142, 149, 147, 148, 148, 146, 150, 150, 149, 152, 156, 153, 154, 158, 163, 160, 162, 163, 162, 174, 165, 164, 185, 177, 176, 180, 178, 175, 177, 179, 179, 178, 177, 176, 175, 181, 183, 182, 183, 184, 189, 188, 189, 187, 188, 187, 185, 190, 191, 197, 199, 201, 197, 196, 199, 200, 201, 202, 202, 206, 211, 207, 206, 208, 207, 208, 205, 204, 213, 215, 214, 215, 216, 218, 219, 219, 221, 223, 216, 224, 224, 225, 224, 229, 239, 235, 236, 232, 233, 233, 236, 232, 232, 231, 235, 242, 243, 242, 241, 245, 246, 244, 247, 248, 249, 250, 251, 257, 254, 252, 255, 255, 256, 258, 257, 255, 253, 254, 262, 264, 265, 265, 268, 267, 268, 270, 271, 272, 273, 274, 272, 272, 273, 278, 261, 280]
[2, 6, 9, 9, 11, 12, 13, 13, 24, 25, 33, 35, 35, 37, 51, 53, 59, 59, 62, 64, 65, 66, 66, 70, 70, 71, 71, 73, 73, 79, 79, 80, 96, 97, 97, 100, 100, 104, 109, 109, 110, 110, 110, 111, 113, 115, 115, 122, 122, 128, 129, 129, 131, 133, 137, 137, 138, 140, 141, 141, 146, 151, 157, 161, 161, 162, 162, 163, 174, 174, 178, 178, 180, 182, 182, 184, 184, 186, 186, 188, 188, 189, 190, 199, 201, 201, 204, 205, 205, 206, 206, 212, 213, 218, 218, 222, 223, 223, 223, 228, 232, 232, 235, 235, 238, 241, 241, 246, 247, 253, 253, 254, 254, 254, 257, 261, 263, 264, 264, 267, 267, 271, 271, 271, 272, 272, 273, 279, 281, 291, 292, 292, 293, 293, 303, 316, 325, 333, 333, 338, 338, 344, 347, 348, 350, 350, 359, 364, 372, 372, 373, 373, 374, 383, 386, 391, 391, 392, 395, 395, 397, 400, 402, 406, 414, 417, 424, 424, 426, 426, 427, 427, 427, 428, 428, 430, 431, 432, 443, 452, 455, 455, 455, 456, 456, 457, 457, 458, 460, 462, 465, 465, 469, 477, 477, 478, 484, 484, 486, 486, 489, 499, 501, 519, 520, 520, 521, 523, 524, 525, 530, 532, 532, 534, 536, 540, 543, 543, 546, 546, 548, 549, 552, 560, 565, 569, 580, 582, 591, 592, 592, 593, 593, 594, 594, 596, 607, 609, 611, 612, 612, 616, 616, 620, 626, 628, 628, 634, 638, 643, 644, 645, 648, 652, 652, 654, 666, 666, 666, 669, 676, 680, 680, 681, 685, 686, 687, 687, 698, 704, 709, 711, 719, 719, 721, 732, 732, 737, 745, 745, 746, 746, 747, 754, 754, 756, 756, 757, 759, 759, 763, 763, 768, 771, 772, 772, 778, 782, 786, 792, 792, 798, 800, 803, 806, 808, 809, 811, 811, 815, 821, 822, 822, 827, 828, 829, 829, 829, 830, 830, 845, 847, 847, 849, 853, 853, 853, 853, 855, 855, 873, 873, 874, 875, 876, 876, 883, 884, 884, 887, 887, 887, 888, 889, 889, 894, 894, 894, 895, 895, 902, 906, 907, 907, 911, 911, 922, 924, 932, 933, 938, 941, 944, 948, 949, 949, 958, 959, 959, 962, 965, 967, 968, 969, 969, 974, 974, 976, 977, 978, 978, 982, 982, 984, 984, 990, 992, 994, 996, 1000, 1012, 1012, 1014, 1014, 1016, 1017, 1018, 1019, 1019, 1021, 1021, 1023, 1023, 1024, 1024, 1033, 1033, 1036, 1050, 1054, 1055, 1055, 1061, 1068, 1068, 1068, 1075, 1078, 1078, 1081, 1082, 1083, 1085, 1087, 1089, 1090, 1090, 1092, 1093, 1093, 1094, 1097, 1100, 1101, 1101, 1103, 1106, 1107, 1116, 1122, 1123, 1124, 1125, 1125, 1127, 1129, 1129, 1134, 1134, 1136, 1141, 1143, 1143, 1153, 1166, 1166, 1166, 1168, 1168, 1181, 1185, 1188, 1193, 1193, 1196, 1201, 1203, 1211, 1213, 1213, 1217, 1223, 1225, 1225, 1226, 1226, 1226, 1228, 1228, 1232, 1232, 1234, 1241, 1246, 1251, 1256, 1257, 1257, 1268, 1273, 1275, 1279, 1292, 1292, 1292, 1296, 1297, 1300, 1300, 1303, 1303, 1305, 1311, 1312, 1312, 1315, 1316, 1316, 1323, 1323, 1328, 1330, 1330, 1333, 1334, 1334, 1336, 1338, 1339, 1339, 1339, 1344, 1346, 1348, 1348, 1350, 1350, 1351, 1351, 1358, 1359, 1360, 1362, 1368, 1369, 1369, 1370, 1370, 1370, 1372, 1372, 1376, 1379, 1382, 1383, 1383, 1385, 1387, 1387, 1387, 1388, 1388, 1389]
